scip-hello-world/n-queen.sol
solution status: optimal solution found
objective value:                                    4
a3                                                  1 	(obj:1)
b1                                                  1 	(obj:1)
c4                                                  1 	(obj:1)
d2                                                  1 	(obj:1)
